11 46
1 2 0
1 3 1
1 4 1
1 5 0
1 6 0
1 7 1
1 8 0
1 9 1
1 10 1
1 11 1
2 3 1
2 4 1
2 5 1
2 6 1
2 7 0
2 8 1
2 9 1
2 10 1
2 11 1
3 4 1
3 5 1
3 6 1
3 7 1
3 8 0
3 9 1
3 10 1
3 11 0
4 5 1
4 6 0
4 7 1
4 8 1
4 9 1
4 10 1
4 11 1
5 6 1
5 7 1
5 8 1
5 9 1
5 10 1
5 11 1
6 7 1
6 8 0
6 9 1
6 10 1
6 11 1
7 8 1
7 9 1
7 10 1
7 11 1
8 9 1
8 10 1
8 11 1
9 10 1
9 11 1
10 11 1
